&control
    calculation  = 'vc-relax',
    restart_mode = 'from_scratch',
    prefix       = '118AlSupercell10x10',
    pseudo_dir   = './',
    outdir       = './',
    tstress      = .true.
    tprnfor      = .true.
 /
&system
    ibrav       = 4,
    nat         = 199,
    ntyp        = 1,
    a           = 43,
    c           = 16.0,
    occupations = 'smearing',
    smearing    = 'm-p',
    degauss     = 0.05,
    ecutwfc     = 80,
/
&ELECTRONS
    mixing_mode = 'plain',
    mixing_beta = 0.5,
/
&IONS
    ion_dynamics  = 'bfgs',
    ion_positions = 'from_input',
    upscale       = 100,
/
&CELL
    cell_dynamics  = "bfgs",
    press_conv_thr = 0.5D-4,
    cell_dofree    = '2Dxy'
/
ATOMIC_SPECIES
Al  29.982  Al.upf

ATOMIC_POSITIONS (angstrom)
Al   0.0000000000    2.4826061550    0.0000000000
Al   2.1500000020    1.2413030780    0.0000000000
Al  -2.1500000000    6.2065153910    0.0000000000
Al   0.0000000020    4.9652123140    0.0000000000
Al  -4.3000000000    9.9304246270    0.0000000000
Al  -2.1499999980    8.6891215500    0.0000000000
Al  -6.4500000000   13.6543338630    0.0000000000
Al  -4.2999999980   12.4130307860    0.0000000000
Al  -8.6000000000   17.3782430990    0.0000000000
Al  -6.4499999980   16.1369400220    0.0000000000
Al -10.7500000000   21.1021523350    0.0000000000
Al  -8.5999999980   19.8608492580    0.0000000000
Al -12.9000000000   24.8260615710    0.0000000000
Al -10.7499999980   23.5847584940    0.0000000000
Al -15.0500000000   28.5499708070    0.0000000000
Al -12.8999999980   27.3086677300    0.0000000000
Al -17.2000000000   32.2738800430    0.0000000000
Al -15.0499999980   31.0325769660    0.0000000000
Al -19.3500000000   35.9977892790    0.0000000000
Al -17.1999999980   34.7564862020    0.0000000000
Al   4.3000000000    2.4826061550    0.0000000000
Al   6.4500000020    1.2413030780    0.0000000000
Al   2.1500000000    6.2065153910    0.0000000000
Al   4.3000000020    4.9652123140    0.0000000000
Al   0.0000000000    9.9304246270    0.0000000000
Al   2.1500000020    8.6891215500    0.0000000000
Al  -2.1500000000   13.6543338630    0.0000000000
Al   0.0000000020   12.4130307860    0.0000000000
Al  -4.3000000000   17.3782430990    0.0000000000
Al  -2.1499999980   16.1369400220    0.0000000000
Al  -6.4500000000   21.1021523350    0.0000000000
Al  -4.2999999980   19.8608492580    0.0000000000
Al  -8.6000000000   24.8260615710    0.0000000000
Al  -6.4499999980   23.5847584940    0.0000000000
Al -10.7500000000   28.5499708070    0.0000000000
Al  -8.5999999980   27.3086677300    0.0000000000
Al -12.9000000000   32.2738800430    0.0000000000
Al -10.7499999980   31.0325769660    0.0000000000
Al -15.0500000000   35.9977892790    0.0000000000
Al -12.8999999980   34.7564862020    0.0000000000
Al   8.6000000000    2.4826061550    0.0000000000
Al  10.7500000020    1.2413030780    0.0000000000
Al   6.4500000000    6.2065153910    0.0000000000
Al   8.6000000020    4.9652123140    0.0000000000
Al   4.3000000000    9.9304246270    0.0000000000
Al   6.4500000020    8.6891215500    0.0000000000
Al   2.1500000000   13.6543338630    0.0000000000
Al   4.3000000020   12.4130307860    0.0000000000
Al   0.0000000000   17.3782430990    0.0000000000
Al   2.1500000020   16.1369400220    0.0000000000
Al  -2.1500000000   21.1021523350    0.0000000000
Al   0.0000000020   19.8608492580    0.0000000000
Al  -4.3000000000   24.8260615710    0.0000000000
Al  -2.1499999980   23.5847584940    0.0000000000
Al  -6.4500000000   28.5499708070    0.0000000000
Al  -4.2999999980   27.3086677300    0.0000000000
Al  -8.6000000000   32.2738800430    0.0000000000
Al  -6.4499999980   31.0325769660    0.0000000000
Al -10.7500000000   35.9977892790    0.0000000000
Al  -8.5999999980   34.7564862020    0.0000000000
Al  12.9000000000    2.4826061550    0.0000000000
Al  15.0500000020    1.2413030780    0.0000000000
Al  10.7500000000    6.2065153910    0.0000000000
Al  12.9000000020    4.9652123140    0.0000000000
Al   8.6000000000    9.9304246270    0.0000000000
Al  10.7500000020    8.6891215500    0.0000000000
Al   6.4500000000   13.6543338630    0.0000000000
Al   8.6000000020   12.4130307860    0.0000000000
Al   4.3000000000   17.3782430990    0.0000000000
Al   6.4500000020   16.1369400220    0.0000000000
Al   2.1500000000   21.1021523350    0.0000000000
Al   4.3000000020   19.8608492580    0.0000000000
Al   0.0000000000   24.8260615710    0.0000000000
Al   2.1500000020   23.5847584940    0.0000000000
Al  -2.1500000000   28.5499708070    0.0000000000
Al   0.0000000020   27.3086677300    0.0000000000
Al  -4.3000000000   32.2738800430    0.0000000000
Al  -2.1499999980   31.0325769660    0.0000000000
Al  -6.4500000000   35.9977892790    0.0000000000
Al  -4.2999999980   34.7564862020    0.0000000000
Al  17.2000000000    2.4826061550    0.0000000000
Al  19.3500000020    1.2413030780    0.0000000000
Al  15.0500000000    6.2065153910    0.0000000000
Al  17.2000000020    4.9652123140    0.0000000000
Al  12.9000000000    9.9304246270    0.0000000000
Al  15.0500000020    8.6891215500    0.0000000000
Al  10.7500000000   13.6543338630    0.0000000000
Al  12.9000000020   12.4130307860    0.0000000000
Al   8.6000000000   17.3782430990    0.0000000000
Al  10.7500000020   16.1369400220    0.0000000000
Al   6.4500000000   21.1021523350    0.0000000000
Al   8.6000000020   19.8608492580    0.0000000000
Al   4.3000000000   24.8260615710    0.0000000000
Al   6.4500000020   23.5847584940    0.0000000000
Al   2.1500000000   28.5499708070    0.0000000000
Al   4.3000000020   27.3086677300    0.0000000000
Al   0.0000000000   32.2738800430    0.0000000000
Al   2.1500000020   31.0325769660    0.0000000000
Al  -2.1500000000   35.9977892790    0.0000000000
Al   0.0000000020   34.7564862020    0.0000000000
Al  21.5000000000    2.4826061550    0.0000000000
Al  23.6500000020    1.2413030780    0.0000000000
Al  19.3500000000    6.2065153910    0.0000000000
Al  21.5000000020    4.9652123140    0.0000000000
Al  17.2000000000    9.9304246270    0.0000000000
Al  19.3500000020    8.6891215500    0.0000000000
Al  15.0500000000   13.6543338630    0.0000000000
Al  17.2000000020   12.4130307860    0.0000000000
Al  12.9000000000   17.3782430990    0.0000000000
Al  15.0500000020   16.1369400220    0.0000000000
Al  10.7500000000   21.1021523350    0.0000000000
Al  12.9000000020   19.8608492580    0.0000000000
Al   8.6000000000   24.8260615710    0.0000000000
Al  10.7500000020   23.5847584940    0.0000000000
Al   6.4500000000   28.5499708070    0.0000000000
Al   8.6000000020   27.3086677300    0.0000000000
Al   4.3000000000   32.2738800430    0.0000000000
Al   2.1500000000   35.9977892790    0.0000000000
Al   4.3000000020   34.7564862020    0.0000000000
Al  25.8000000000    2.4826061550    0.0000000000
Al  27.9500000020    1.2413030780    0.0000000000
Al  23.6500000000    6.2065153910    0.0000000000
Al  25.8000000020    4.9652123140    0.0000000000
Al  21.5000000000    9.9304246270    0.0000000000
Al  23.6500000020    8.6891215500    0.0000000000
Al  19.3500000000   13.6543338630    0.0000000000
Al  21.5000000020   12.4130307860    0.0000000000
Al  17.2000000000   17.3782430990    0.0000000000
Al  19.3500000020   16.1369400220    0.0000000000
Al  15.0500000000   21.1021523350    0.0000000000
Al  17.2000000020   19.8608492580    0.0000000000
Al  12.9000000000   24.8260615710    0.0000000000
Al  15.0500000020   23.5847584940    0.0000000000
Al  10.7500000000   28.5499708070    0.0000000000
Al  12.9000000020   27.3086677300    0.0000000000
Al   8.6000000000   32.2738800430    0.0000000000
Al  10.7500000020   31.0325769660    0.0000000000
Al   6.4500000000   35.9977892790    0.0000000000
Al   8.6000000020   34.7564862020    0.0000000000
Al  30.1000000000    2.4826061550    0.0000000000
Al  32.2500000020    1.2413030780    0.0000000000
Al  27.9500000000    6.2065153910    0.0000000000
Al  30.1000000020    4.9652123140    0.0000000000
Al  25.8000000000    9.9304246270    0.0000000000
Al  27.9500000020    8.6891215500    0.0000000000
Al  23.6500000000   13.6543338630    0.0000000000
Al  25.8000000020   12.4130307860    0.0000000000
Al  21.5000000000   17.3782430990    0.0000000000
Al  23.6500000020   16.1369400220    0.0000000000
Al  19.3500000000   21.1021523350    0.0000000000
Al  21.5000000020   19.8608492580    0.0000000000
Al  17.2000000000   24.8260615710    0.0000000000
Al  19.3500000020   23.5847584940    0.0000000000
Al  15.0500000000   28.5499708070    0.0000000000
Al  17.2000000020   27.3086677300    0.0000000000
Al  12.9000000000   32.2738800430    0.0000000000
Al  15.0500000020   31.0325769660    0.0000000000
Al  10.7500000000   35.9977892790    0.0000000000
Al  12.9000000020   34.7564862020    0.0000000000
Al  34.4000000000    2.4826061550    0.0000000000
Al  36.5500000020    1.2413030780    0.0000000000
Al  32.2500000000    6.2065153910    0.0000000000
Al  34.4000000020    4.9652123140    0.0000000000
Al  30.1000000000    9.9304246270    0.0000000000
Al  32.2500000020    8.6891215500    0.0000000000
Al  27.9500000000   13.6543338630    0.0000000000
Al  30.1000000020   12.4130307860    0.0000000000
Al  25.8000000000   17.3782430990    0.0000000000
Al  27.9500000020   16.1369400220    0.0000000000
Al  23.6500000000   21.1021523350    0.0000000000
Al  25.8000000020   19.8608492580    0.0000000000
Al  21.5000000000   24.8260615710    0.0000000000
Al  23.6500000020   23.5847584940    0.0000000000
Al  19.3500000000   28.5499708070    0.0000000000
Al  21.5000000020   27.3086677300    0.0000000000
Al  17.2000000000   32.2738800430    0.0000000000
Al  19.3500000020   31.0325769660    0.0000000000
Al  15.0500000000   35.9977892790    0.0000000000
Al  17.2000000020   34.7564862020    0.0000000000
Al  38.7000000000    2.4826061550    0.0000000000
Al  40.8500000020    1.2413030780    0.0000000000
Al  36.5500000000    6.2065153910    0.0000000000
Al  38.7000000020    4.9652123140    0.0000000000
Al  34.4000000000    9.9304246270    0.0000000000
Al  36.5500000020    8.6891215500    0.0000000000
Al  32.2500000000   13.6543338630    0.0000000000
Al  34.4000000020   12.4130307860    0.0000000000
Al  30.1000000000   17.3782430990    0.0000000000
Al  32.2500000020   16.1369400220    0.0000000000
Al  27.9500000000   21.1021523350    0.0000000000
Al  30.1000000020   19.8608492580    0.0000000000
Al  25.8000000000   24.8260615710    0.0000000000
Al  27.9500000020   23.5847584940    0.0000000000
Al  23.6500000000   28.5499708070    0.0000000000
Al  25.8000000020   27.3086677300    0.0000000000
Al  21.5000000000   32.2738800430    0.0000000000
Al  23.6500000020   31.0325769660    0.0000000000
Al  19.3500000000   35.9977892790    0.0000000000
Al  21.5000000020   34.7564862020    0.0000000000

K_POINTS {automatic}
1 1 1  0 0 0
