&control
    calculation   = 'vc-relax',
    restart_mode  = 'from_scratch',
    prefix        = 'al_planar_1x1_vcr',
    pseudo_dir    = './',
    outdir        = './',
    tstress       = .true.
    tprnfor       = .true.
    etot_conv_thr = 1.0D-5,
    forc_conv_thr = 1.0D-4,
    nstep         = 300
 /
&system
    ibrav       = 4,
    nat         = 2,
    ntyp        = 1,
    a           = 4.4558,
    c           = 20.0,
    occupations = 'smearing',
    smearing    = 'm-p',
    degauss     = 0.05,
    ecutwfc     = 80,
/
&ELECTRONS
    mixing_mode = 'plain',
    mixing_beta = 0.4,
/
&IONS
    ion_dynamics   = 'bfgs',
    ion_positions = 'from_input',
    upscale       = 100,
/
&CELL
    cell_dynamics  = "bfgs",
    press_conv_thr = 0.5D-4,
    cell_dofree    = '2Dxy',
/
ATOMIC_SPECIES
 Al  29.982   Al.upf

ATOMIC_POSITIONS (angstrom)
Al       0.000000586   2.572587870   0.000000000
Al       2.227926741   1.286293428   0.000000000

K_POINTS {automatic}
1 1 1  0 0 0
