&CONTROL
      calculation = 'relax',
     restart_mode = 'from_scratch',
       pseudo_dir = '../QE_pseudo',
           outdir = './',
           prefix = 'al',
          tprnfor = .true.
    etot_conv_thr = 1.0D-5,
    forc_conv_thr = 1.0D-4,
            nstep = 300,
/
&SYSTEM
            ibrav = 0,
        celldm(1) = 10,
              nat = 1,
             ntyp = 1,
      occupations = 'smearing',
         smearing = 'mv',
          degauss = 0.02,
          ecutwfc = 80,
/
&ELECTRONS
      mixing_mode = 'plain',
      mixing_beta = 0.4,
/
&IONS
    ion_dynamics  = 'bfgs',
    ion_positions = 'from_input',
    upscale       = 100,
/
ATOMIC_SPECIES
Al  29.982   Al.upf

CELL_PARAMETERS {alat}
2 0 0
0 2 0
0 0 2

ATOMIC_POSITIONS (crystal)
Al 0.5 0.5 0.5

K_POINTS {automatic}
 4 4 4   0 0 0
